VRPTWMS/instances/mip/fuel/5/N5-C_DV100-C_SV25_F5_7_No_1.log

Gurobi 6.0.2 (win64) logging started 06/12/15 15:22:27

Read LP format model from file C:\MT\repository\VRPTWMS\instances\mip\fuel\N5-C_DV100-C_SV25_F5_7_No_1.lp
Reading time = 0.00 seconds
(null): 186 rows, 103 columns, 698 nonzeros
Optimize a model with 186 rows, 103 columns and 698 nonzeros
Model has 150 quadratic constraints
WARNING: Only barrier available for SOCP models
Coefficient statistics:
  Matrix range    [1e+00, 1e+02]
  Objective range [1e+01, 1e+03]
  Bounds range    [1e+00, 1e+02]
  RHS range       [1e+00, 1e+02]
Presolve removed 21 rows and 11 columns
Presolve time: 0.02s
Presolved: 466 rows, 251 columns, 2088 nonzeros
Variable types: 138 continuous, 113 integer (85 binary)
Found heuristic solution: objective 5238.2400000
Optimize a model with 466 rows, 251 columns and 2088 nonzeros
Coefficient statistics:
  Matrix range    [1e+00, 1e+02]
  Objective range [1e+01, 1e+03]
  Bounds range    [1e+00, 1e+02]
  RHS range       [1e+00, 1e+02]
Presolve removed 51 rows and 37 columns
Presolved: 415 rows, 215 columns, 1898 nonzeros


Root relaxation: objective 3.661445e+02, 54 iterations, 0.00 seconds

    Nodes    |    Current Node    |     Objective Bounds      |     Work
 Expl Unexpl |  Obj  Depth IntInf | Incumbent    BestBd   Gap | It/Node Time

     0     0  366.14450    0   20 5238.24000  366.14450  93.0%     -    0s
H    0     0                    4225.8800000  366.14450  91.3%     -    0s
     0     0 1144.21532    0   15 4225.88000 1144.21532  72.9%     -    0s
H    0     0                    3184.8400000 1144.21532  64.1%     -    0s
     0     0 1149.30500    0   15 3184.84000 1149.30500  63.9%     -    0s
     0     0 1149.65250    0   19 3184.84000 1149.65250  63.9%     -    0s
     0     0 1149.65250    0   19 3184.84000 1149.65250  63.9%     -    0s
     0     0 1149.65250    0   17 3184.84000 1149.65250  63.9%     -    0s
     0     0 1149.65250    0   21 3184.84000 1149.65250  63.9%     -    0s
     0     0 1149.65250    0   21 3184.84000 1149.65250  63.9%     -    0s
     0     2 1149.65250    0   21 3184.84000 1149.65250  63.9%     -    0s
*  781    49              26    2311.0000000 2167.78815  6.20%  14.8    0s
H  927     0                    2261.5300000 2215.14000  2.05%  14.5    0s

Cutting planes:
  Learned: 4
  Cover: 44
  Implied bound: 48
  Clique: 10
  MIR: 29
  GUB cover: 2
  Zero half: 1

Explored 982 nodes (14074 simplex iterations) in 0.30 seconds
Thread count was 2 (of 4 available processors)

Optimal solution found (tolerance 1.00e-04)
Best objective 2.261530000000e+03, best bound 2.261530000000e+03, gap 0.0%
k_c1	6.999999999999991
k_c2	11.999999999999991
k_c3	100.0
k_c4	3.0
k_c5	16.999999999999993
k_dN	-0.0
o_1	-0.0
o_2	-0.0
o_3	-0.0
o_4	0.0
o_5	-0.0
p_1	1.0
p_2	1.0
p_3	1.0
p_4	0.0
p_5	0.0
phi_c1	3.0
phi_c2	-0.0
phi_c3	3.0
phi_c4	2.9999999999999996
phi_c5	1.0
phi_dN	-0.0
pi_c1	2.0000000000000107
pi_c2	7.000000000000011
pi_c3	9.00000000000001
pi_c4	-0.0
pi_c5	-0.0
pi_dN	-0.0
tauD_c1	62.99999999999993
tauD_c2	47.0
tauD_c3	8.0
tauD_c4	85.0
tauD_c5	37.0
tauD_d0	-0.0
tauD_dN	100.0
tauS_c1	63.0
tauS_c2	33.0
tauS_c3	10.0
tauS_c4	83.00000000000001
tauS_c5	85.0
tauS_d0	-0.0
tauS_dN	80.99999999999993
x_c1_c4	1.0
x_c2_c1	1.0
x_c3_c5	1.0
x_c4_dN	1.0
x_c5_c2	1.0
x_d0_c3	1.0
z_c1_dN	1.0
z_c2_c1	1.0
z_c3_c2	1.0
z_d0_c3	1.0
